p cnf 32 232
4 7 11 16 22 29 37 46 0
8 12 17 23 30 38 47 57 0
13 18 24 31 39 48 58 69 0
19 25 32 40 49 59 70 82 0
-4 -8 0
-7 -12 0
-11 -17 0
-16 -23 0
-22 -30 0
-29 -38 0
-37 -47 0
-46 -57 0
-4 -13 0
-7 -18 0
-11 -24 0
-16 -31 0
-22 -39 0
-29 -48 0
-37 -58 0
-46 -69 0
-4 -19 0
-7 -25 0
-11 -32 0
-16 -40 0
-22 -49 0
-29 -59 0
-37 -70 0
-46 -82 0
-8 -13 0
-12 -18 0
-17 -24 0
-23 -31 0
-30 -39 0
-38 -48 0
-47 -58 0
-57 -69 0
-8 -19 0
-12 -25 0
-17 -32 0
-23 -40 0
-30 -49 0
-38 -59 0
-47 -70 0
-57 -82 0
-13 -19 0
-18 -25 0
-24 -32 0
-31 -40 0
-39 -49 0
-48 -59 0
-58 -70 0
-69 -82 0
-4 -12 0
-4 -17 0
-4 -23 0
-4 -30 0
-4 -38 0
-4 -47 0
-4 -57 0
-7 -17 0
-11 -23 0
-11 -47 0
-11 -57 0
-16 -47 0
-22 -38 0
-22 -47 0
-22 -57 0
-4 -18 0
-4 -24 0
-4 -31 0
-4 -39 0
-4 -48 0
-4 -58 0
-4 -69 0
-7 -24 0
-11 -31 0
-11 -58 0
-11 -69 0
-16 -58 0
-22 -48 0
-22 -58 0
-22 -69 0
-4 -25 0
-4 -32 0
-4 -40 0
-4 -49 0
-4 -59 0
-4 -70 0
-4 -82 0
-7 -32 0
-11 -40 0
-11 -70 0
-11 -82 0
-16 -70 0
-22 -59 0
-22 -70 0
-22 -82 0
-8 -7 0
-8 -11 0
-8 -16 0
-8 -22 0
-8 -29 0
-8 -37 0
-8 -46 0
-12 -11 0
-17 -16 0
-17 -37 0
-17 -46 0
-23 -37 0
-30 -29 0
-30 -37 0
-30 -46 0
-8 -18 0
-8 -24 0
-8 -31 0
-8 -39 0
-8 -48 0
-8 -58 0
-8 -69 0
-12 -24 0
-17 -31 0
-17 -58 0
-17 -69 0
-23 -58 0
-30 -48 0
-30 -58 0
-30 -69 0
-8 -25 0
-8 -32 0
-8 -40 0
-8 -49 0
-8 -59 0
-8 -70 0
-8 -82 0
-12 -32 0
-17 -40 0
-17 -70 0
-17 -82 0
-23 -70 0
-30 -59 0
-30 -70 0
-30 -82 0
-13 -7 0
-13 -11 0
-13 -16 0
-13 -22 0
-13 -29 0
-13 -37 0
-13 -46 0
-18 -11 0
-24 -16 0
-24 -37 0
-24 -46 0
-31 -37 0
-39 -29 0
-39 -37 0
-39 -46 0
-13 -12 0
-13 -17 0
-13 -23 0
-13 -30 0
-13 -38 0
-13 -47 0
-13 -57 0
-18 -17 0
-24 -23 0
-24 -47 0
-24 -57 0
-31 -47 0
-39 -38 0
-39 -47 0
-39 -57 0
-13 -25 0
-13 -32 0
-13 -40 0
-13 -49 0
-13 -59 0
-13 -70 0
-13 -82 0
-18 -32 0
-24 -40 0
-24 -70 0
-24 -82 0
-31 -70 0
-39 -59 0
-39 -70 0
-39 -82 0
-19 -7 0
-19 -11 0
-19 -16 0
-19 -22 0
-19 -29 0
-19 -37 0
-19 -46 0
-25 -11 0
-32 -16 0
-32 -37 0
-32 -46 0
-40 -37 0
-49 -29 0
-49 -37 0
-49 -46 0
-19 -12 0
-19 -17 0
-19 -23 0
-19 -30 0
-19 -38 0
-19 -47 0
-19 -57 0
-25 -17 0
-32 -23 0
-32 -47 0
-32 -57 0
-40 -47 0
-49 -38 0
-49 -47 0
-49 -57 0
-19 -18 0
-19 -24 0
-19 -31 0
-19 -39 0
-19 -48 0
-19 -58 0
-19 -69 0
-25 -24 0
-32 -31 0
-32 -58 0
-32 -69 0
-40 -58 0
-49 -48 0
-49 -58 0
-49 -69 0
